# Objective value = 95605
x66 0
x67 1
x68 0
x69 0
x70 1
x71 0
x72 0
x73 1
x74 0
x75 1
x76 1
x77 0
x78 1
x79 0
x80 0
x81 0
x82 1
x83 0
x84 1
x85 1
x86 0
x87 0
x88 1
x89 0
x90 1
x91 1
x92 0
x93 1
x94 0
x95 1
x96 0
x97 1
x98 1
x99 0
x100 1
x101 1
x102 0
x103 1
x104 0
x105 1
x106 1
x107 0
x108 1
x109 1
x110 1
x111 0
x112 1
x113 0
x114 1
x115 1
x116 0
x117 1
x118 1
x119 1
x120 1
x121 0
x122 1
x123 0
x124 1
x125 1
x126 0
x127 1
x128 1
x129 1
x130 1
x131 1
x132 1
x133 0
x134 1
x135 0
x136 0
x137 1
x138 0
x139 0
x140 0
x141 0
x142 0
x143 0
x144 0
x145 1
x146 0
x147 1
x148 1
x149 0
x150 1
x151 1
x152 1
x153 1
x154 1
x155 1
x156 0
x157 0
x158 1
x159 0
x160 1
x161 1
x162 0
x163 1
x164 1
x165 1
x166 1
x167 1
x168 1
x169 0
x170 1
x171 1
x172 0
x173 1
x174 0
x175 0
x176 1
x177 0
x178 0
x179 0
x180 0
x181 0
x182 0
x183 1
x184 0
x185 0
x186 0
x187 1
x188 0
x189 1
x190 1
x191 0
x192 1
x193 1
x194 1
x195 1
x196 1
x197 1
x198 0
x199 1
x200 1
x201 0
x202 0
x203 1
x204 0
x205 1
x206 1
x207 1
x208 1
x209 0
x210 1
x211 0
x212 1
x213 1
x214 1
x215 1
x216 1
x217 0
x218 1
x219 0
x220 1
x221 1
x222 1
x223 0
x224 1
x225 1
x226 1
x227 0
x228 1
x229 0
x230 0
x231 1
x232 0
x233 0
x234 0
x235 0
x236 0
x237 0
x238 1
x239 1
x240 1
x241 1
x242 1
x243 1
x244 1
x245 1
x246 0
x247 0
x248 0
x249 1
x250 1
x251 1
x252 1
x253 1
x254 1
x255 1
x256 1
x257 0
x258 1
x259 1
x260 1
x261 0
x262 0
x263 0
x264 0
x265 1
x266 0
x267 0
x268 0
x269 1
x270 0
x271 0
x272 0
x273 0
x274 1
x275 1
x276 1
x277 0
x278 1
x279 1
x280 1
x281 1
x282 0
x283 1
x284 1
x285 0
x286 0
x287 1
x288 0
x289 1
x290 1
x291 1
x292 0
x293 1
x294 1
x295 1
x296 0
x297 1
x298 1
x299 0
x300 1
x301 1
x302 1
x303 0
x304 0
x305 0
x306 0
x307 1
x308 0
x309 0
x310 0
x311 1
x312 0
x313 0
x314 1
x315 0
x316 0
x317 0
x318 1
x319 1
x320 1
x321 1
x322 1
x323 0
x324 1
x325 1
x326 1
x327 0
x328 1
x329 1
x330 0
x331 1
x332 1
x333 0
x334 0
x335 1
x336 1
x337 1
x338 1
x339 1
x340 0
x341 1
x342 1
x343 1
x344 0
x345 1
x346 1
x347 0
x348 1
x349 1
x350 0
x351 1
x352 1
x353 0
x354 1
x355 0
x356 0
x357 1
x358 0
x359 0
x360 0
x361 0
x362 1
x363 0
x364 0
x365 1
x366 0
x367 0
x368 1
x369 0
x370 0
x371 0
x372 0
x373 1
x374 1
x375 1
x376 0
x377 1
x378 1
x379 1
x380 1
x381 0
x382 1
x383 1
x384 0
x385 1
x386 1
x387 0
x388 1
x389 1
x390 0
x391 0
x392 1
x393 1
x394 1
x395 1
x396 0
x397 1
x398 1
x399 1
x400 1
x401 0
x402 1
x403 1
x404 0
x405 1
x406 1
x407 0
x408 1
x409 1
x410 0
x411 1
x412 0
x413 1
x414 1
x415 1
x416 1
x417 0
x418 1
x419 1
x420 1
x421 1
x422 0
x423 1
x424 1
x425 0
x426 1
x427 1
x428 0
x429 1
x430 1
x431 0
x432 1
x433 1
x434 1
x435 0
x436 1
x437 0
x438 0
x439 1
x440 0
x441 0
x442 0
x443 1
x444 0
x445 0
x446 1
x447 0
x448 1
x449 1
x450 1
x451 1
x452 1
x453 1
x454 0
x455 1
x456 0
x457 0
x458 1
x459 0
x460 1
x461 1
x462 1
x463 1
x464 1
x465 1
x466 0
x467 0
x468 0
x469 1
x470 0
x471 1
x472 0
x473 1
x474 1
x475 1
x476 1
x477 1
x478 1
x479 0
x480 1
x481 0
x482 1
x483 1
x484 0
x485 1
x486 0
x487 1
x488 1
x489 1
x490 1
x491 1
x492 1
x493 0
x494 1
x495 0
x496 1
x497 1
x498 1
x499 1
x500 1
x501 1
x502 0
x503 0
x504 0
x505 0
x506 0
x507 0
x508 1
x509 0
x510 1
x511 0
x512 0
x513 0
x514 0
x515 0
x516 1
x517 0
x518 1
x519 1
x520 1
x521 1
x522 1
x523 1
x524 0
x525 1
x526 0
x527 1
x528 1
x529 1
x530 1
x531 0
x532 0
x533 1
x534 0
x535 1
x536 1
x537 1
x538 0
x539 1
x540 1
x541 0
x542 1
x543 0
x544 1
x545 1
x546 1
x547 1
x548 0
x549 1
x550 0
x551 1
x552 1
x553 1
x554 0
x555 1
x556 1
x557 0
x558 1
x559 1
x560 0
x561 0
x562 1
x563 1
x564 1
x565 1
x566 0
x567 1
x568 1
x569 0
x570 1
x571 1
x572 1
x573 0
x574 1
x575 1
x576 0
x577 1
x578 1
x579 1
x580 0
x581 1
x582 1
x583 1
x584 1
x585 0
x586 1
x587 1
x588 1
x589 1
x590 0
x591 0
x592 0
x593 1
x594 1
x595 0
x596 1
x597 0
x598 0
x599 0
x600 1
x601 0
x602 0
x603 0
x604 0
x605 1
x606 0
x607 0
x608 0
x609 0
x610 0
x611 1
x612 1
x613 1
x614 0
x615 1
x616 1
x617 0
x618 1
x619 1
x620 1
x621 0
x622 1
x623 1
x624 1
x625 1
x626 0
x627 1
x628 1
x629 1
x630 1
x631 0
x632 0
x633 1
x634 1
x635 1
x636 0
x637 1
x638 1
x639 0
x640 1
x641 1
x642 1
x643 0
x644 1
x645 1
x646 1
x647 1
x648 0
x649 1
x650 1
x651 1
x652 1
x653 0
x654 1
x655 0
x656 1
x657 1
x658 1
x659 0
x660 1
x661 0
x662 0
x663 1
x664 1
x665 1
x666 0
x667 1
x668 1
x669 1
x670 1
x671 0
x672 1
x673 1
x674 1
x675 1
x676 0
x677 1
x678 1
x679 0
x680 1
x681 1
x682 1
x683 0
x684 1
x685 1
x686 0
x687 1
x688 1
x689 1
x690 0
x691 1
x692 1
x693 1
x694 1
x695 0
x696 1
x697 1
x698 1
x699 1
x700 0
x701 1
x702 1
x703 1
x704 1
x705 1
x706 0
x707 0
x708 1
x709 0
x710 0
x711 1
x712 0
x713 0
x714 0
x715 1
x716 0
x717 0
x718 0
x719 0
x720 1
x721 0
x722 0
x723 0
x724 0
x725 1
x726 0
x727 0
x728 0
x729 0
x730 0
x731 1
x732 0
x733 1
x734 1
x735 0
x736 1
x737 1
x738 1
x739 0
x740 1
x741 0
x742 1
x743 1
x744 1
x745 1
x746 1
x747 0
x748 1
x749 0
x750 1
x751 1
x752 1
x753 1
x754 1
x755 1
x756 0
x757 1
x758 0
x759 1
x760 1
x761 1
x762 1
x763 1
x764 1
x765 1
x766 0
x767 1
x768 0
x769 0
x770 0
x771 0
x772 0
x773 0
x774 1
x775 1
x776 1
x777 0
x778 0
x779 0
x780 1
x781 0
x782 0
x783 0
x784 0
x785 1
x786 0
x787 1
x788 1
x789 1
x790 1
x791 1
x792 1
x793 0
x794 1
x795 0
x796 1
x797 1
x798 1
x799 1
x800 0
x801 1
x802 1
x803 0
x804 0
x805 1
x806 0
x807 1
x808 1
x809 1
x810 1
x811 1
x812 1
x813 0
x814 1
x815 1
x816 0
x817 1
x818 1
x819 1
x820 1
x821 1
x822 1
x823 0
x824 1
x825 0
x826 0
x827 0
x828 1
x829 1
x830 1
x831 1
x832 1
x833 1
x834 0
x835 1
x836 1
x837 0
x838 1
x839 1
x840 1
x841 1
x842 1
x843 1
x844 0
x845 1
x846 1
x847 0
x848 1
x849 0
x850 1
x851 1
x852 1
x853 1
x854 1
x855 1
x856 0
x857 1
x858 1
x859 0
x860 1
x861 1
x862 0
x863 1
x864 1
x865 1
x866 0
x867 1
x868 1
x869 1
x870 1
x871 0
x872 1
x873 0
x874 0
x875 0
x876 1
x877 0
x878 0
x879 1
x880 0
x881 0
x882 1
x883 0
x884 0
x885 0
x886 1
x887 0
x888 0
x889 1
x890 0
x891 0
x892 0
x893 0
x894 1
x895 0
x896 0
x897 0
x898 1
x899 0
x900 0
x901 1
x902 0
x903 0
x904 1
x905 1
x906 0
x907 0
x908 0
x909 1
x910 0
x911 0
x912 0
x913 1
x914 0
x915 0
x916 0
x917 0
x918 1
x919 0
x920 1
x921 1
x922 1
x923 0
x924 1
x925 1
x926 0
x927 1
x928 1
x929 1
x930 1
x931 0
x932 1
x933 1
x934 0
x935 1
x936 1
x937 1
x938 0
x939 1
x940 1
x941 1
x942 1
x943 0
x944 0
x945 0
x946 1
x947 1
x948 1
x949 0
x950 0
x951 1
x952 0
x953 1
x954 1
x955 1
x956 1
x957 1
x958 1
x959 1
x960 0
x961 1
x962 1
x963 1
x964 0
x965 1
x966 1
x967 1
x968 1
x969 0
x970 0
x971 1
x972 0
x973 1
x974 1
x975 1
x976 0
x977 1
x978 1
x979 0
x980 1
x981 1
x982 1
x983 1
x984 1
x985 1
x986 1
x987 0
x988 1
x989 1
x990 1
x991 0
x992 1
x993 1
x994 1
x995 1
x996 0
x997 0
x998 1
x999 1
x1000 0
x1001 1
x1002 1
x1003 1
x1004 0
x1005 1
x1006 1
x1007 0
x1008 1
x1009 1
x1010 1
x1011 0
x1012 1
x1013 1
x1014 1
x1015 1
x1016 0
x1017 1
x1018 1
x1019 0
x1020 1
x1021 1
x1022 1
x1023 1
x1024 0
x1025 0
x1026 1
x1027 1
x1028 1
x1029 1
x1030 0
x1031 0
x1032 0
x1033 1
x1034 0
x1035 1
x1036 1
x1037 0
x1038 0
x1039 0
x1040 0
x1041 1
x1042 0
x1043 0
x1044 0
x1045 1
x1046 0
x1047 0
x1048 1
x1049 0
x1050 0
x1051 0
x1052 0
x1053 1
x1054 1
x1055 0
x1056 0
x1057 0
x1058 0
x1059 0
x1060 1
x1061 1
x1062 1
x1063 0
x1064 1
x1065 1
x1066 0
x1067 1
x1068 1
x1069 1
x1070 1
x1071 1
x1072 1
x1073 1
x1074 1
x1075 0
x1076 1
x1077 1
x1078 0
x1079 1
x1080 1
x1081 1
x1082 1
x1083 0
x1084 0
x1085 1
x1086 1
x1087 1
x1088 1
x1089 0
x1090 0
x1091 0
x1092 1
x1093 1
x1094 0
x1095 1
x1096 1
x1097 0
x1098 1
x1099 1
x1100 1
x1101 1
x1102 1
x1103 1
x1104 1
x1105 1
x1106 0
x1107 1
x1108 1
x1109 0
x1110 1
x1111 1
x1112 1
x1113 1
x1114 0
x1115 0
x1116 1
x1117 1
x1118 1
x1119 1
x1120 0
x1121 1
x1 1
x2 0
x3 1
x4 0
x5 0
x6 1
x7 0
x8 0
x9 0
x10 0
x11 0
x12 0
x13 1
x14 0
x15 0
x16 1
x17 0
x18 0
x19 0
x20 0
x21 1
x22 0
x23 0
x24 1
x25 0
x26 0
x27 1
x28 0
x29 0
x30 1
x31 0
x32 0
x33 0
x34 1
x35 0
x36 0
x37 0
x38 0
x39 1
x40 0
x41 0
x42 0
x43 0
x44 1
x45 0
x46 0
x47 0
x48 0
x49 1
x50 0
x51 0
x52 1
x53 0
x54 0
x55 0
x56 0
x57 1
x58 1
x59 0
x60 0
x61 0
x62 0
x63 1
x64 0
x65 0
